p ds 50 93
1 3
1 5
1 6
1 10
1 44
1 45
1 13
1 48
1 50
2 20
2 31
2 16
3 12
3 6
4 37
4 19
4 22
4 27
4 29
4 30
5 45
5 14
6 41
6 12
6 29
7 42
7 20
7 31
7 36
8 49
8 38
8 40
9 50
9 43
9 35
9 48
10 14
11 41
11 25
12 25
12 14
13 17
13 29
13 50
15 31
15 48
16 34
16 44
16 45
16 20
17 50
17 30
17 29
18 42
18 46
18 47
19 47
19 21
19 39
20 31
21 40
21 42
21 49
21 24
21 26
21 28
22 37
22 46
23 33
23 27
23 36
23 38
24 40
26 27
26 28
27 33
27 36
27 50
27 28
28 32
29 37
29 30
30 50
32 33
32 49
33 38
34 44
34 48
37 46
38 40
41 46
44 48
46 47
